(assert (forall ((pkt_0_6_8_0  Int  )(pkt_1_7_9_0  Int  )(state_group_0_state_0_8_a_0  Int  )(state_group_1_state_0_9_b_0  Int  )(state_group_2_state_0_a_c_0  Int  )) (let ((_n0 30 ))
(let ((_n1 pkt_1_7_9_0 ))
(let ((_n2 (<   _n1   _n0 ) ))
(let ((_n3 state_group_1_state_0_9_b_0 ))
(let ((_n4 (+   _n3   _n1 ) ))
(let ((_n5 (ite  _n2   _n4   _n3  ) ))
(let ((_n6 false ))
(let ((_n7 (=   _n1   (ite  _n6  1 0) ) ))
(let ((_n8 (not  _n7 ) ))
(let ((_n9 (ite (=  _n1  0)  (ite  _n6  1 0)   _n1  ) ))
(let ((_n10 (+   _n3   _n9 ) ))
(let ((_n11 (ite (=  (ite  _n8  1 0)  1)  _n10   _n3  ) ))
(let ((_n12 (=   _n11   _n5 ) ))
(let ((_n14 state_group_2_state_0_a_c_0 ))
(let ((_n15 true ))
(let ((_n16 (+   _n14   (ite  _n15  1 0) ) ))
(let ((_n17 (ite  _n2   _n16   _n14  ) ))
(let ((_n18 (=   _n16   _n17 ) ))
(let ((_n20 pkt_0_6_8_0 ))
(let ((_n21 state_group_0_state_0_8_a_0 ))
(implies  (and (and (>= state_group_2_state_0_a_c_0 0) (< state_group_2_state_0_a_c_0 1024 ))  (and (and (>= state_group_1_state_0_9_b_0 0) (< state_group_1_state_0_9_b_0 1024 ))  (and (and (>= state_group_0_state_0_8_a_0 0) (< state_group_0_state_0_8_a_0 1024 ))  (and (and (>= pkt_1_7_9_0 0) (< pkt_1_7_9_0 1024 ))  (and (>= pkt_0_6_8_0 0) (< pkt_0_6_8_0 1024 )) ) ) ) )   (and  _n12  _n18 )  )))))))))))))))))))))))
(check-sat)
(get-model)
(exit)